Route #1: 1 32 12 7 16 46 4 1
Route #2: 1 55 36 41 30 5 47 24 28 17 25 1
Route #3: 1 52 10 9 29 26 54 13 37 39 19 1
Route #4: 1 3 31 51 53 43 23 15 40 2 49 1
Route #5: 1 38 21 48 33 8 44 56 1
Route #6: 1 6 34 14 50 57 27 20 1
Route #7: 1 45 22 11 42 18 35 1
cost: 1278
